\ This file has been generated by DOcplex
\ ENCODING=ISO-8859-1
\Problem name: Max-cut

Maximize
 obj: 3 x_0 + 2 x_1 + 3 x_2 + 2 x_3 + [ - 4 x_0*x_1 - 4 x_0*x_2 - 4 x_0*x_3
      - 4 x_1*x_2 - 4 x_2*x_3 ]/2
Subject To

Bounds
 0 <= x_0 <= 1
 0 <= x_1 <= 1
 0 <= x_2 <= 1
 0 <= x_3 <= 1

Binaries
 x_0 x_1 x_2 x_3
End
